p cnf 120 1204
1 2 3 0
4 5 6 0
7 8 9 0
10 11 12 0
13 14 15 0
16 17 18 0
19 20 21 0
22 23 24 0
25 26 27 0
28 29 30 0
31 32 33 0
34 35 36 0
37 38 39 0
40 41 42 0
43 44 45 0
46 47 48 0
49 50 51 0
52 53 54 0
55 56 57 0
58 59 60 0
61 62 63 0
64 65 66 0
67 68 69 0
70 71 72 0
73 74 75 0
76 77 78 0
79 80 81 0
82 83 84 0
85 86 87 0
88 89 90 0
91 92 93 0
94 95 96 0
97 98 99 0
100 101 102 0
103 104 105 0
106 107 108 0
109 110 111 0
112 113 114 0
115 116 117 0
118 119 120 0
-1 -2 0
-1 -3 0
-2 -3 0
-4 -5 0
-4 -6 0
-5 -6 0
-7 -8 0
-7 -9 0
-8 -9 0
-10 -11 0
-10 -12 0
-11 -12 0
-13 -14 0
-13 -15 0
-14 -15 0
-16 -17 0
-16 -18 0
-17 -18 0
-19 -20 0
-19 -21 0
-20 -21 0
-22 -23 0
-22 -24 0
-23 -24 0
-25 -26 0
-25 -27 0
-26 -27 0
-28 -29 0
-28 -30 0
-29 -30 0
-31 -32 0
-31 -33 0
-32 -33 0
-34 -35 0
-34 -36 0
-35 -36 0
-37 -38 0
-37 -39 0
-38 -39 0
-40 -41 0
-40 -42 0
-41 -42 0
-43 -44 0
-43 -45 0
-44 -45 0
-46 -47 0
-46 -48 0
-47 -48 0
-49 -50 0
-49 -51 0
-50 -51 0
-52 -53 0
-52 -54 0
-53 -54 0
-55 -56 0
-55 -57 0
-56 -57 0
-58 -59 0
-58 -60 0
-59 -60 0
-61 -62 0
-61 -63 0
-62 -63 0
-64 -65 0
-64 -66 0
-65 -66 0
-67 -68 0
-67 -69 0
-68 -69 0
-70 -71 0
-70 -72 0
-71 -72 0
-73 -74 0
-73 -75 0
-74 -75 0
-76 -77 0
-76 -78 0
-77 -78 0
-79 -80 0
-79 -81 0
-80 -81 0
-82 -83 0
-82 -84 0
-83 -84 0
-85 -86 0
-85 -87 0
-86 -87 0
-88 -89 0
-88 -90 0
-89 -90 0
-91 -92 0
-91 -93 0
-92 -93 0
-94 -95 0
-94 -96 0
-95 -96 0
-97 -98 0
-97 -99 0
-98 -99 0
-100 -101 0
-100 -102 0
-101 -102 0
-103 -104 0
-103 -105 0
-104 -105 0
-106 -107 0
-106 -108 0
-107 -108 0
-109 -110 0
-109 -111 0
-110 -111 0
-112 -113 0
-112 -114 0
-113 -114 0
-115 -116 0
-115 -117 0
-116 -117 0
-118 -119 0
-118 -120 0
-119 -120 0
-1 -7 0
-1 -19 0
-1 -52 0
-1 -58 0
-1 -64 0
-1 -85 0
-1 -88 0
-1 -109 0
-1 -115 0
-4 -13 0
-4 -16 0
-4 -22 0
-4 -28 0
-4 -61 0
-4 -67 0
-4 -106 0
-4 -118 0
-7 -1 0
-7 -13 0
-7 -28 0
-7 -31 0
-7 -37 0
-7 -52 0
-7 -85 0
-7 -109 0
-7 -118 0
-10 -22 0
-10 -46 0
-10 -49 0
-10 -70 0
-10 -91 0
-10 -94 0
-10 -97 0
-10 -100 0
-10 -109 0
-13 -4 0
-13 -7 0
-13 -19 0
-13 -43 0
-13 -49 0
-13 -61 0
-13 -82 0
-13 -85 0
-13 -94 0
-13 -115 0
-16 -4 0
-16 -46 0
-16 -58 0
-16 -61 0
-16 -67 0
-16 -91 0
-16 -100 0
-16 -103 0
-16 -109 0
-16 -112 0
-19 -1 0
-19 -13 0
-19 -25 0
-19 -52 0
-19 -64 0
-19 -76 0
-19 -94 0
-19 -97 0
-19 -109 0
-22 -4 0
-22 -10 0
-22 -25 0
-22 -61 0
-22 -73 0
-22 -94 0
-22 -97 0
-22 -100 0
-25 -19 0
-25 -22 0
-25 -46 0
-25 -52 0
-25 -70 0
-25 -82 0
-25 -85 0
-25 -91 0
-25 -100 0
-28 -4 0
-28 -7 0
-28 -43 0
-28 -46 0
-28 -55 0
-28 -70 0
-28 -76 0
-28 -115 0
-31 -7 0
-31 -52 0
-31 -55 0
-31 -64 0
-31 -70 0
-31 -73 0
-31 -88 0
-31 -100 0
-31 -112 0
-34 -37 0
-34 -46 0
-34 -49 0
-34 -52 0
-34 -55 0
-34 -73 0
-34 -76 0
-34 -82 0
-34 -103 0
-34 -115 0
-37 -7 0
-37 -34 0
-37 -46 0
-37 -49 0
-37 -67 0
-37 -85 0
-37 -106 0
-37 -115 0
-40 -46 0
-40 -49 0
-40 -55 0
-40 -73 0
-40 -85 0
-40 -97 0
-40 -106 0
-40 -112 0
-43 -13 0
-43 -28 0
-43 -46 0
-43 -55 0
-43 -70 0
-43 -79 0
-43 -103 0
-46 -10 0
-46 -16 0
-46 -25 0
-46 -28 0
-46 -34 0
-46 -37 0
-46 -40 0
-46 -43 0
-46 -49 0
-46 -58 0
-49 -10 0
-49 -13 0
-49 -34 0
-49 -37 0
-49 -40 0
-49 -46 0
-49 -58 0
-49 -61 0
-49 -88 0
-49 -97 0
-52 -1 0
-52 -7 0
-52 -19 0
-52 -25 0
-52 -31 0
-52 -34 0
-52 -73 0
-52 -76 0
-52 -82 0
-52 -88 0
-55 -28 0
-55 -31 0
-55 -34 0
-55 -40 0
-55 -43 0
-55 -82 0
-55 -97 0
-55 -100 0
-55 -106 0
-55 -112 0
-58 -1 0
-58 -16 0
-58 -46 0
-58 -49 0
-58 -61 0
-58 -85 0
-58 -91 0
-58 -103 0
-61 -4 0
-61 -13 0
-61 -16 0
-61 -22 0
-61 -49 0
-61 -58 0
-61 -73 0
-61 -79 0
-61 -103 0
-64 -1 0
-64 -19 0
-64 -31 0
-64 -76 0
-64 -82 0
-64 -85 0
-64 -91 0
-64 -106 0
-67 -4 0
-67 -16 0
-67 -37 0
-67 -70 0
-67 -73 0
-67 -79 0
-67 -112 0
-67 -118 0
-70 -10 0
-70 -25 0
-70 -28 0
-70 -31 0
-70 -43 0
-70 -67 0
-70 -82 0
-70 -109 0
-70 -115 0
-70 -118 0
-73 -22 0
-73 -31 0
-73 -34 0
-73 -40 0
-73 -52 0
-73 -61 0
-73 -67 0
-73 -79 0
-76 -19 0
-76 -28 0
-76 -34 0
-76 -52 0
-76 -64 0
-76 -94 0
-76 -109 0
-76 -118 0
-79 -43 0
-79 -61 0
-79 -67 0
-79 -73 0
-79 -88 0
-79 -97 0
-79 -100 0
-79 -115 0
-82 -13 0
-82 -25 0
-82 -34 0
-82 -52 0
-82 -55 0
-82 -64 0
-82 -70 0
-82 -88 0
-82 -97 0
-85 -1 0
-85 -7 0
-85 -13 0
-85 -25 0
-85 -37 0
-85 -40 0
-85 -58 0
-85 -64 0
-88 -1 0
-88 -31 0
-88 -49 0
-88 -52 0
-88 -79 0
-88 -82 0
-88 -103 0
-88 -109 0
-88 -118 0
-91 -10 0
-91 -16 0
-91 -25 0
-91 -58 0
-91 -64 0
-91 -94 0
-91 -115 0
-91 -118 0
-94 -10 0
-94 -13 0
-94 -19 0
-94 -22 0
-94 -76 0
-94 -91 0
-94 -103 0
-94 -115 0
-97 -10 0
-97 -19 0
-97 -22 0
-97 -40 0
-97 -49 0
-97 -55 0
-97 -79 0
-97 -82 0
-100 -10 0
-100 -16 0
-100 -22 0
-100 -25 0
-100 -31 0
-100 -55 0
-100 -79 0
-100 -106 0
-100 -112 0
-103 -16 0
-103 -34 0
-103 -43 0
-103 -58 0
-103 -61 0
-103 -88 0
-103 -94 0
-103 -106 0
-103 -112 0
-103 -118 0
-106 -4 0
-106 -37 0
-106 -40 0
-106 -55 0
-106 -64 0
-106 -100 0
-106 -103 0
-106 -118 0
-109 -1 0
-109 -7 0
-109 -10 0
-109 -16 0
-109 -19 0
-109 -70 0
-109 -76 0
-109 -88 0
-112 -16 0
-112 -31 0
-112 -40 0
-112 -55 0
-112 -67 0
-112 -100 0
-112 -103 0
-115 -1 0
-115 -13 0
-115 -28 0
-115 -34 0
-115 -37 0
-115 -70 0
-115 -79 0
-115 -91 0
-115 -94 0
-118 -4 0
-118 -7 0
-118 -67 0
-118 -70 0
-118 -76 0
-118 -88 0
-118 -91 0
-118 -103 0
-118 -106 0
-2 -8 0
-2 -20 0
-2 -53 0
-2 -59 0
-2 -65 0
-2 -86 0
-2 -89 0
-2 -110 0
-2 -116 0
-5 -14 0
-5 -17 0
-5 -23 0
-5 -29 0
-5 -62 0
-5 -68 0
-5 -107 0
-5 -119 0
-8 -2 0
-8 -14 0
-8 -29 0
-8 -32 0
-8 -38 0
-8 -53 0
-8 -86 0
-8 -110 0
-8 -119 0
-11 -23 0
-11 -47 0
-11 -50 0
-11 -71 0
-11 -92 0
-11 -95 0
-11 -98 0
-11 -101 0
-11 -110 0
-14 -5 0
-14 -8 0
-14 -20 0
-14 -44 0
-14 -50 0
-14 -62 0
-14 -83 0
-14 -86 0
-14 -95 0
-14 -116 0
-17 -5 0
-17 -47 0
-17 -59 0
-17 -62 0
-17 -68 0
-17 -92 0
-17 -101 0
-17 -104 0
-17 -110 0
-17 -113 0
-20 -2 0
-20 -14 0
-20 -26 0
-20 -53 0
-20 -65 0
-20 -77 0
-20 -95 0
-20 -98 0
-20 -110 0
-23 -5 0
-23 -11 0
-23 -26 0
-23 -62 0
-23 -74 0
-23 -95 0
-23 -98 0
-23 -101 0
-26 -20 0
-26 -23 0
-26 -47 0
-26 -53 0
-26 -71 0
-26 -83 0
-26 -86 0
-26 -92 0
-26 -101 0
-29 -5 0
-29 -8 0
-29 -44 0
-29 -47 0
-29 -56 0
-29 -71 0
-29 -77 0
-29 -116 0
-32 -8 0
-32 -53 0
-32 -56 0
-32 -65 0
-32 -71 0
-32 -74 0
-32 -89 0
-32 -101 0
-32 -113 0
-35 -38 0
-35 -47 0
-35 -50 0
-35 -53 0
-35 -56 0
-35 -74 0
-35 -77 0
-35 -83 0
-35 -104 0
-35 -116 0
-38 -8 0
-38 -35 0
-38 -47 0
-38 -50 0
-38 -68 0
-38 -86 0
-38 -107 0
-38 -116 0
-41 -47 0
-41 -50 0
-41 -56 0
-41 -74 0
-41 -86 0
-41 -98 0
-41 -107 0
-41 -113 0
-44 -14 0
-44 -29 0
-44 -47 0
-44 -56 0
-44 -71 0
-44 -80 0
-44 -104 0
-47 -11 0
-47 -17 0
-47 -26 0
-47 -29 0
-47 -35 0
-47 -38 0
-47 -41 0
-47 -44 0
-47 -50 0
-47 -59 0
-50 -11 0
-50 -14 0
-50 -35 0
-50 -38 0
-50 -41 0
-50 -47 0
-50 -59 0
-50 -62 0
-50 -89 0
-50 -98 0
-53 -2 0
-53 -8 0
-53 -20 0
-53 -26 0
-53 -32 0
-53 -35 0
-53 -74 0
-53 -77 0
-53 -83 0
-53 -89 0
-56 -29 0
-56 -32 0
-56 -35 0
-56 -41 0
-56 -44 0
-56 -83 0
-56 -98 0
-56 -101 0
-56 -107 0
-56 -113 0
-59 -2 0
-59 -17 0
-59 -47 0
-59 -50 0
-59 -62 0
-59 -86 0
-59 -92 0
-59 -104 0
-62 -5 0
-62 -14 0
-62 -17 0
-62 -23 0
-62 -50 0
-62 -59 0
-62 -74 0
-62 -80 0
-62 -104 0
-65 -2 0
-65 -20 0
-65 -32 0
-65 -77 0
-65 -83 0
-65 -86 0
-65 -92 0
-65 -107 0
-68 -5 0
-68 -17 0
-68 -38 0
-68 -71 0
-68 -74 0
-68 -80 0
-68 -113 0
-68 -119 0
-71 -11 0
-71 -26 0
-71 -29 0
-71 -32 0
-71 -44 0
-71 -68 0
-71 -83 0
-71 -110 0
-71 -116 0
-71 -119 0
-74 -23 0
-74 -32 0
-74 -35 0
-74 -41 0
-74 -53 0
-74 -62 0
-74 -68 0
-74 -80 0
-77 -20 0
-77 -29 0
-77 -35 0
-77 -53 0
-77 -65 0
-77 -95 0
-77 -110 0
-77 -119 0
-80 -44 0
-80 -62 0
-80 -68 0
-80 -74 0
-80 -89 0
-80 -98 0
-80 -101 0
-80 -116 0
-83 -14 0
-83 -26 0
-83 -35 0
-83 -53 0
-83 -56 0
-83 -65 0
-83 -71 0
-83 -89 0
-83 -98 0
-86 -2 0
-86 -8 0
-86 -14 0
-86 -26 0
-86 -38 0
-86 -41 0
-86 -59 0
-86 -65 0
-89 -2 0
-89 -32 0
-89 -50 0
-89 -53 0
-89 -80 0
-89 -83 0
-89 -104 0
-89 -110 0
-89 -119 0
-92 -11 0
-92 -17 0
-92 -26 0
-92 -59 0
-92 -65 0
-92 -95 0
-92 -116 0
-92 -119 0
-95 -11 0
-95 -14 0
-95 -20 0
-95 -23 0
-95 -77 0
-95 -92 0
-95 -104 0
-95 -116 0
-98 -11 0
-98 -20 0
-98 -23 0
-98 -41 0
-98 -50 0
-98 -56 0
-98 -80 0
-98 -83 0
-101 -11 0
-101 -17 0
-101 -23 0
-101 -26 0
-101 -32 0
-101 -56 0
-101 -80 0
-101 -107 0
-101 -113 0
-104 -17 0
-104 -35 0
-104 -44 0
-104 -59 0
-104 -62 0
-104 -89 0
-104 -95 0
-104 -107 0
-104 -113 0
-104 -119 0
-107 -5 0
-107 -38 0
-107 -41 0
-107 -56 0
-107 -65 0
-107 -101 0
-107 -104 0
-107 -119 0
-110 -2 0
-110 -8 0
-110 -11 0
-110 -17 0
-110 -20 0
-110 -71 0
-110 -77 0
-110 -89 0
-113 -17 0
-113 -32 0
-113 -41 0
-113 -56 0
-113 -68 0
-113 -101 0
-113 -104 0
-116 -2 0
-116 -14 0
-116 -29 0
-116 -35 0
-116 -38 0
-116 -71 0
-116 -80 0
-116 -92 0
-116 -95 0
-119 -5 0
-119 -8 0
-119 -68 0
-119 -71 0
-119 -77 0
-119 -89 0
-119 -92 0
-119 -104 0
-119 -107 0
-3 -9 0
-3 -21 0
-3 -54 0
-3 -60 0
-3 -66 0
-3 -87 0
-3 -90 0
-3 -111 0
-3 -117 0
-6 -15 0
-6 -18 0
-6 -24 0
-6 -30 0
-6 -63 0
-6 -69 0
-6 -108 0
-6 -120 0
-9 -3 0
-9 -15 0
-9 -30 0
-9 -33 0
-9 -39 0
-9 -54 0
-9 -87 0
-9 -111 0
-9 -120 0
-12 -24 0
-12 -48 0
-12 -51 0
-12 -72 0
-12 -93 0
-12 -96 0
-12 -99 0
-12 -102 0
-12 -111 0
-15 -6 0
-15 -9 0
-15 -21 0
-15 -45 0
-15 -51 0
-15 -63 0
-15 -84 0
-15 -87 0
-15 -96 0
-15 -117 0
-18 -6 0
-18 -48 0
-18 -60 0
-18 -63 0
-18 -69 0
-18 -93 0
-18 -102 0
-18 -105 0
-18 -111 0
-18 -114 0
-21 -3 0
-21 -15 0
-21 -27 0
-21 -54 0
-21 -66 0
-21 -78 0
-21 -96 0
-21 -99 0
-21 -111 0
-24 -6 0
-24 -12 0
-24 -27 0
-24 -63 0
-24 -75 0
-24 -96 0
-24 -99 0
-24 -102 0
-27 -21 0
-27 -24 0
-27 -48 0
-27 -54 0
-27 -72 0
-27 -84 0
-27 -87 0
-27 -93 0
-27 -102 0
-30 -6 0
-30 -9 0
-30 -45 0
-30 -48 0
-30 -57 0
-30 -72 0
-30 -78 0
-30 -117 0
-33 -9 0
-33 -54 0
-33 -57 0
-33 -66 0
-33 -72 0
-33 -75 0
-33 -90 0
-33 -102 0
-33 -114 0
-36 -39 0
-36 -48 0
-36 -51 0
-36 -54 0
-36 -57 0
-36 -75 0
-36 -78 0
-36 -84 0
-36 -105 0
-36 -117 0
-39 -9 0
-39 -36 0
-39 -48 0
-39 -51 0
-39 -69 0
-39 -87 0
-39 -108 0
-39 -117 0
-42 -48 0
-42 -51 0
-42 -57 0
-42 -75 0
-42 -87 0
-42 -99 0
-42 -108 0
-42 -114 0
-45 -15 0
-45 -30 0
-45 -48 0
-45 -57 0
-45 -72 0
-45 -81 0
-45 -105 0
-48 -12 0
-48 -18 0
-48 -27 0
-48 -30 0
-48 -36 0
-48 -39 0
-48 -42 0
-48 -45 0
-48 -51 0
-48 -60 0
-51 -12 0
-51 -15 0
-51 -36 0
-51 -39 0
-51 -42 0
-51 -48 0
-51 -60 0
-51 -63 0
-51 -90 0
-51 -99 0
-54 -3 0
-54 -9 0
-54 -21 0
-54 -27 0
-54 -33 0
-54 -36 0
-54 -75 0
-54 -78 0
-54 -84 0
-54 -90 0
-57 -30 0
-57 -33 0
-57 -36 0
-57 -42 0
-57 -45 0
-57 -84 0
-57 -99 0
-57 -102 0
-57 -108 0
-57 -114 0
-60 -3 0
-60 -18 0
-60 -48 0
-60 -51 0
-60 -63 0
-60 -87 0
-60 -93 0
-60 -105 0
-63 -6 0
-63 -15 0
-63 -18 0
-63 -24 0
-63 -51 0
-63 -60 0
-63 -75 0
-63 -81 0
-63 -105 0
-66 -3 0
-66 -21 0
-66 -33 0
-66 -78 0
-66 -84 0
-66 -87 0
-66 -93 0
-66 -108 0
-69 -6 0
-69 -18 0
-69 -39 0
-69 -72 0
-69 -75 0
-69 -81 0
-69 -114 0
-69 -120 0
-72 -12 0
-72 -27 0
-72 -30 0
-72 -33 0
-72 -45 0
-72 -69 0
-72 -84 0
-72 -111 0
-72 -117 0
-72 -120 0
-75 -24 0
-75 -33 0
-75 -36 0
-75 -42 0
-75 -54 0
-75 -63 0
-75 -69 0
-75 -81 0
-78 -21 0
-78 -30 0
-78 -36 0
-78 -54 0
-78 -66 0
-78 -96 0
-78 -111 0
-78 -120 0
-81 -45 0
-81 -63 0
-81 -69 0
-81 -75 0
-81 -90 0
-81 -99 0
-81 -102 0
-81 -117 0
-84 -15 0
-84 -27 0
-84 -36 0
-84 -54 0
-84 -57 0
-84 -66 0
-84 -72 0
-84 -90 0
-84 -99 0
-87 -3 0
-87 -9 0
-87 -15 0
-87 -27 0
-87 -39 0
-87 -42 0
-87 -60 0
-87 -66 0
-90 -3 0
-90 -33 0
-90 -51 0
-90 -54 0
-90 -81 0
-90 -84 0
-90 -105 0
-90 -111 0
-90 -120 0
-93 -12 0
-93 -18 0
-93 -27 0
-93 -60 0
-93 -66 0
-93 -96 0
-93 -117 0
-93 -120 0
-96 -12 0
-96 -15 0
-96 -21 0
-96 -24 0
-96 -78 0
-96 -93 0
-96 -105 0
-96 -117 0
-99 -12 0
-99 -21 0
-99 -24 0
-99 -42 0
-99 -51 0
-99 -57 0
-99 -81 0
-99 -84 0
-102 -12 0
-102 -18 0
-102 -24 0
-102 -27 0
-102 -33 0
-102 -57 0
-102 -81 0
-102 -108 0
-102 -114 0
-105 -18 0
-105 -36 0
-105 -45 0
-105 -60 0
-105 -63 0
-105 -90 0
-105 -96 0
-105 -108 0
-105 -114 0
-105 -120 0
-108 -6 0
-108 -39 0
-108 -42 0
-108 -57 0
-108 -66 0
-108 -102 0
-108 -105 0
-108 -120 0
-111 -3 0
-111 -9 0
-111 -12 0
-111 -18 0
-111 -21 0
-111 -72 0
-111 -78 0
-111 -90 0
-114 -18 0
-114 -33 0
-114 -42 0
-114 -57 0
-114 -69 0
-114 -102 0
-114 -105 0
-117 -3 0
-117 -15 0
-117 -30 0
-117 -36 0
-117 -39 0
-117 -72 0
-117 -81 0
-117 -93 0
-117 -96 0
-120 -6 0
-120 -9 0
-120 -69 0
-120 -72 0
-120 -78 0
-120 -90 0
-120 -93 0
-120 -105 0
-120 -108 0
